p cnf 2778 891
-2459 2611 0
-2611 2459 0
-2613 -2614 0
-2461 2613 0
-2462 2614 0
-2613 2461 0
-2614 2462 0
-2616 -2617 0
-2464 2616 0
-2465 2617 0
-2616 2464 0
-2617 2465 0
-2619 -2620 0
-2619 -2621 0
-2620 -2621 0
-2467 2619 0
-2468 2620 0
-2469 2621 0
-2619 2467 0
-2620 2468 0
-2621 2469 0
-2623 -2624 0
-2471 2623 0
-2472 2624 0
-2623 2471 0
-2624 2472 0
-2626 -2627 0
-2626 -2628 0
-2627 -2628 0
-2474 2626 0
-2475 2627 0
-2476 2628 0
-2626 2474 0
-2627 2475 0
-2628 2476 0
-2630 -2631 0
-2478 2630 0
-2479 2631 0
-2630 2478 0
-2631 2479 0
-2633 -2634 0
-2633 -2635 0
-2634 -2635 0
-2481 2633 0
-2482 2634 0
-2483 2635 0
-2633 2481 0
-2634 2482 0
-2635 2483 0
-2637 -2638 0
-2485 2637 0
-2486 2638 0
-2637 2485 0
-2638 2486 0
-2640 -2641 0
-2640 -2642 0
-2641 -2642 0
-2488 2640 0
-2489 2641 0
-2490 2642 0
-2640 2488 0
-2641 2489 0
-2642 2490 0
-2644 -2645 0
-2492 2644 0
-2493 2645 0
-2644 2492 0
-2645 2493 0
-2647 -2648 0
-2647 -2649 0
-2648 -2649 0
-2495 2647 0
-2496 2648 0
-2497 2649 0
-2647 2495 0
-2648 2496 0
-2649 2497 0
-2651 -2652 0
-2499 2651 0
-2500 2652 0
-2651 2499 0
-2652 2500 0
-2654 -2655 0
-2654 -2656 0
-2655 -2656 0
-2502 2654 0
-2503 2655 0
-2504 2656 0
-2654 2502 0
-2655 2503 0
-2656 2504 0
-2658 -2659 0
-2506 2658 0
-2507 2659 0
-2658 2506 0
-2659 2507 0
-2661 -2662 0
-2661 -2663 0
-2662 -2663 0
-2509 2661 0
-2510 2662 0
-2511 2663 0
-2661 2509 0
-2662 2510 0
-2663 2511 0
-2665 -2666 0
-2513 2665 0
-2514 2666 0
-2665 2513 0
-2666 2514 0
-2668 -2669 0
-2668 -2670 0
-2669 -2670 0
-2516 2668 0
-2517 2669 0
-2518 2670 0
-2668 2516 0
-2669 2517 0
-2670 2518 0
-2672 -2673 0
-2520 2672 0
-2521 2673 0
-2672 2520 0
-2673 2521 0
-2675 -2676 0
-2675 -2677 0
-2676 -2677 0
-2523 2677 0
-2524 2676 0
-2525 2675 0
-2526 2676 0
-2675 2525 0
-2676 2524 2526 0
-2677 2523 0
-2679 2685 2686 2687 2688 2689 0
-2685 -2686 0
-2685 -2687 0
-2685 -2688 0
-2685 -2689 0
-2686 -2687 0
-2686 -2688 0
-2686 -2689 0
-2687 -2688 0
-2687 -2689 0
-2688 -2689 0
-2679 2690 2691 2692 2693 2694 2695 2696 0
-2690 -2691 0
-2690 -2692 0
-2690 -2693 0
-2690 -2694 0
-2690 -2695 0
-2690 -2696 0
-2691 -2692 0
-2691 -2693 0
-2691 -2694 0
-2691 -2695 0
-2691 -2696 0
-2692 -2693 0
-2692 -2694 0
-2692 -2695 0
-2692 -2696 0
-2693 -2694 0
-2693 -2695 0
-2693 -2696 0
-2694 -2695 0
-2694 -2696 0
-2695 -2696 0
-2679 2697 2698 2699 2700 2701 2702 2703 2704 0
-2697 -2698 0
-2697 -2699 0
-2697 -2700 0
-2697 -2701 0
-2697 -2702 0
-2697 -2703 0
-2697 -2704 0
-2698 -2699 0
-2698 -2700 0
-2698 -2701 0
-2698 -2702 0
-2698 -2703 0
-2698 -2704 0
-2699 -2700 0
-2699 -2701 0
-2699 -2702 0
-2699 -2703 0
-2699 -2704 0
-2700 -2701 0
-2700 -2702 0
-2700 -2703 0
-2700 -2704 0
-2701 -2702 0
-2701 -2703 0
-2701 -2704 0
-2702 -2703 0
-2702 -2704 0
-2703 -2704 0
-2679 2684 0
-2679 2683 0
-2679 2682 0
-2679 -2680 0
-2688 -2690 -2682 2571 0
-2688 -2695 -2682 2578 0
-2688 -2691 -2682 2558 0
-2686 -2694 -2682 2559 0
-2688 -2696 -2682 2560 0
-2685 -2691 -2682 2561 0
-2687 -2691 -2682 2574 0
-2689 -2694 -2682 2590 0
-2687 -2696 -2682 2563 0
-2688 -2693 -2682 2565 0
-2687 -2694 -2682 2583 0
-2685 -2694 -2682 2575 0
-2689 -2695 -2682 2566 0
-2689 -2691 -2682 2591 0
-2685 -2695 -2682 2592 0
-2688 -2692 -2682 2584 0
-2686 -2691 -2682 2585 0
-2689 -2690 -2682 2568 0
-2689 -2692 -2682 2586 0
-2686 -2696 -2682 2577 0
-2689 -2696 -2682 2570 0
-2688 -2694 -2682 2588 0
-2685 -2696 -2682 2594 0
-2686 -2692 -2682 2595 0
-2685 -2692 -2682 2596 0
-2697 -2683 2582 0
-2702 -2683 2567 0
-2698 -2683 2593 0
-2703 -2683 2569 0
-2701 -2683 2573 0
-2700 -2683 2589 0
-2699 -2683 2580 0
-2704 -2683 2564 0
-2685 -2684 2426 0
-2688 -2684 2399 0
-2687 -2684 2393 0
-2686 -2684 2417 0
-2689 -2684 2401 0
-2679 -2689 -2700 0
-2679 -2689 -2703 0
-2679 -2686 -2702 0
-2679 -2686 -2700 0
-2679 -2686 -2703 0
-2679 -2686 -2697 0
-2679 -2687 -2702 0
-2679 -2687 -2700 0
-2679 -2687 -2699 0
-2679 -2687 -2703 0
-2679 -2687 -2697 0
-2679 -2688 -2703 0
-2679 -2685 -2700 0
-2679 -2685 -2703 0
-2679 -2685 -2697 0
-2679 -2689 -2693 0
-2679 -2686 -2695 0
-2679 -2686 -2690 0
-2679 -2686 -2693 0
-2679 -2687 -2695 0
-2679 -2687 -2692 0
-2679 -2687 -2690 0
-2679 -2687 -2693 0
-2679 -2685 -2690 0
-2679 -2685 -2693 0
-2554 2679 0
-2553 2680 0
-2679 2554 0
-2680 2553 0
-2705 2709 0
-2707 2709 0
-2706 -2709 0
-2708 -2709 0
-2558 2710 -2679 -2688 2691 0
-2558 2710 -2679 2688 0
-2558 2710 2679 0
2558 -2710 -2679 -2688 2698 0
2558 -2710 -2679 2688 0
2558 -2710 2679 0
-2559 2711 -2679 -2686 2694 0
-2559 2711 -2679 2686 0
-2559 2711 2679 0
2559 -2711 -2679 -2686 2701 0
2559 -2711 -2679 2686 0
2559 -2711 2679 0
-2393 2712 -2679 2687 0
-2393 2712 2679 0
2393 -2712 -2679 2692 0
2393 -2712 2679 0
-2560 2713 -2679 -2688 2696 0
-2560 2713 -2679 2688 0
-2560 2713 2679 0
2560 -2713 -2679 -2688 2704 0
2560 -2713 -2679 2688 0
2560 -2713 2679 0
-2561 2714 -2679 -2685 2691 0
-2561 2714 -2679 2685 0
-2561 2714 2679 0
2561 -2714 -2679 -2685 2698 0
2561 -2714 -2679 2685 0
2561 -2714 2679 0
-2563 2715 -2679 -2687 2696 0
-2563 2715 -2679 2687 0
-2563 2715 2679 0
2563 -2715 -2679 -2687 2704 0
2563 -2715 -2679 2687 0
2563 -2715 2679 0
-2564 2716 -2679 2704 0
-2564 2716 2679 0
2564 -2716 0
-2565 2717 -2679 -2688 2693 0
-2565 2717 -2679 2688 0
-2565 2717 2679 0
2565 -2717 -2679 -2688 2700 0
2565 -2717 -2679 2688 0
2565 -2717 2679 0
-2399 2718 -2679 2688 0
-2399 2718 2679 0
2399 -2718 0
-2566 2719 -2679 -2689 2695 0
-2566 2719 -2679 2689 0
-2566 2719 2679 0
2566 -2719 -2679 -2689 2702 0
2566 -2719 -2679 2689 0
2566 -2719 2679 0
-2567 2720 -2679 2702 0
-2567 2720 2679 0
2567 -2720 -2679 2686 0
2567 -2720 2679 0
-2401 2721 -2679 2689 0
-2401 2721 2679 0
2401 -2721 -2679 2693 0
2401 -2721 2679 0
-2568 2722 -2679 -2689 2690 0
-2568 2722 -2679 2689 0
-2568 2722 2679 0
2568 -2722 -2679 -2689 2697 0
2568 -2722 -2679 2689 0
2568 -2722 2679 0
-2569 2723 -2679 2703 0
-2569 2723 2679 0
2569 -2723 -2679 2688 0
2569 -2723 2679 0
-2570 2724 -2679 -2689 2696 0
-2570 2724 -2679 2689 0
-2570 2724 2679 0
2570 -2724 -2679 -2689 2704 0
2570 -2724 -2679 2689 0
2570 -2724 2679 0
-2571 2725 -2679 -2688 2690 0
-2571 2725 -2679 2688 0
-2571 2725 2679 0
2571 -2725 -2679 -2688 2697 0
2571 -2725 -2679 2688 0
2571 -2725 2679 0
-2405 2726 0
2405 -2726 -2679 2691 0
2405 -2726 2679 0
-2573 2727 -2679 2701 0
-2573 2727 2679 0
2573 -2727 0
-2574 2728 -2679 -2687 2691 0
-2574 2728 -2679 2687 0
-2574 2728 2679 0
2574 -2728 -2679 -2687 2698 0
2574 -2728 -2679 2687 0
2574 -2728 2679 0
-2575 2729 -2679 -2685 2694 0
-2575 2729 -2679 2685 0
-2575 2729 2679 0
2575 -2729 -2679 -2685 2701 0
2575 -2729 -2679 2685 0
2575 -2729 2679 0
-2410 2730 0
2410 -2730 -2679 2694 0
2410 -2730 2679 0
-2577 2731 -2679 -2686 2696 0
-2577 2731 -2679 2686 0
-2577 2731 2679 0
2577 -2731 -2679 -2686 2704 0
2577 -2731 -2679 2686 0
2577 -2731 2679 0
-2578 2732 -2679 -2688 2695 0
-2578 2732 -2679 2688 0
-2578 2732 2679 0
2578 -2732 -2679 -2688 2702 0
2578 -2732 -2679 2688 0
2578 -2732 2679 0
-2413 2733 0
2413 -2733 -2679 2696 0
2413 -2733 2679 0
-2580 2734 -2679 2699 0
-2580 2734 2679 0
2580 -2734 -2679 2687 0
2580 -2734 2679 0
-2582 2735 -2679 2697 0
-2582 2735 2679 0
2582 -2735 -2679 2685 0
2582 -2735 2679 0
-2583 2736 -2679 -2687 2694 0
-2583 2736 -2679 2687 0
-2583 2736 2679 0
2583 -2736 -2679 -2687 2701 0
2583 -2736 -2679 2687 0
2583 -2736 2679 0
-2417 2737 -2679 2686 0
-2417 2737 2679 0
2417 -2737 -2679 2695 0
2417 -2737 2679 0
-2584 2738 -2679 -2688 2692 0
-2584 2738 -2679 2688 0
-2584 2738 2679 0
2584 -2738 -2679 -2688 2699 0
2584 -2738 -2679 2688 0
2584 -2738 2679 0
-2585 2739 -2679 -2686 2691 0
-2585 2739 -2679 2686 0
-2585 2739 2679 0
2585 -2739 -2679 -2686 2698 0
2585 -2739 -2679 2686 0
2585 -2739 2679 0
-2586 2740 -2679 -2689 2692 0
-2586 2740 -2679 2689 0
-2586 2740 2679 0
2586 -2740 -2679 -2689 2699 0
2586 -2740 -2679 2689 0
2586 -2740 2679 0
-2588 2741 -2679 -2688 2694 0
-2588 2741 -2679 2688 0
-2588 2741 2679 0
2588 -2741 -2679 -2688 2701 0
2588 -2741 -2679 2688 0
2588 -2741 2679 0
-2589 2742 -2679 2700 0
-2589 2742 2679 0
2589 -2742 -2679 2689 0
2589 -2742 2679 0
-2590 2743 -2679 -2689 2694 0
-2590 2743 -2679 2689 0
-2590 2743 2679 0
2590 -2743 -2679 -2689 2701 0
2590 -2743 -2679 2689 0
2590 -2743 2679 0
-2591 2744 -2679 -2689 2691 0
-2591 2744 -2679 2689 0
-2591 2744 2679 0
2591 -2744 -2679 -2689 2698 0
2591 -2744 -2679 2689 0
2591 -2744 2679 0
-2592 2745 -2679 -2685 2695 0
-2592 2745 -2679 2685 0
-2592 2745 2679 0
2592 -2745 -2679 -2685 2702 0
2592 -2745 -2679 2685 0
2592 -2745 2679 0
-2593 2746 -2679 2698 0
-2593 2746 2679 0
2593 -2746 0
-2426 2747 -2679 2685 0
-2426 2747 2679 0
2426 -2747 -2679 2690 0
2426 -2747 2679 0
-2594 2748 -2679 -2685 2696 0
-2594 2748 -2679 2685 0
-2594 2748 2679 0
2594 -2748 -2679 -2685 2704 0
2594 -2748 -2679 2685 0
2594 -2748 2679 0
-2595 2749 -2679 -2686 2692 0
-2595 2749 -2679 2686 0
-2595 2749 2679 0
2595 -2749 -2679 -2686 2699 0
2595 -2749 -2679 2686 0
2595 -2749 2679 0
-2596 2750 -2679 -2685 2692 0
-2596 2750 -2679 2685 0
-2596 2750 2679 0
2596 -2750 -2679 -2685 2699 0
2596 -2750 -2679 2685 0
2596 -2750 2679 0
-2706 2761 2762 2763 2764 2765 2766 2767 2768 0
-2761 -2762 0
-2761 -2763 0
-2761 -2764 0
-2761 -2765 0
-2761 -2766 0
-2761 -2767 0
-2761 -2768 0
-2762 -2763 0
-2762 -2764 0
-2762 -2765 0
-2762 -2766 0
-2762 -2767 0
-2762 -2768 0
-2763 -2764 0
-2763 -2765 0
-2763 -2766 0
-2763 -2767 0
-2763 -2768 0
-2764 -2765 0
-2764 -2766 0
-2764 -2767 0
-2764 -2768 0
-2765 -2766 0
-2765 -2767 0
-2765 -2768 0
-2766 -2767 0
-2766 -2768 0
-2767 -2768 0
-2706 2769 2770 2771 2772 2773 0
-2769 -2770 0
-2769 -2771 0
-2769 -2772 0
-2769 -2773 0
-2770 -2771 0
-2770 -2772 0
-2770 -2773 0
-2771 -2772 0
-2771 -2773 0
-2772 -2773 0
-2706 2760 0
-2706 2754 0
-2707 2562 0
-2707 2726 0
-2708 2769 2770 2771 2772 2773 0
-2769 -2770 0
-2769 -2771 0
-2769 -2772 0
-2769 -2773 0
-2770 -2771 0
-2770 -2772 0
-2770 -2773 0
-2771 -2772 0
-2771 -2773 0
-2772 -2773 0
-2708 2761 2762 2763 2764 2765 2766 2767 2768 0
-2761 -2762 0
-2761 -2763 0
-2761 -2764 0
-2761 -2765 0
-2761 -2766 0
-2761 -2767 0
-2761 -2768 0
-2762 -2763 0
-2762 -2764 0
-2762 -2765 0
-2762 -2766 0
-2762 -2767 0
-2762 -2768 0
-2763 -2764 0
-2763 -2765 0
-2763 -2766 0
-2763 -2767 0
-2763 -2768 0
-2764 -2765 0
-2764 -2766 0
-2764 -2767 0
-2764 -2768 0
-2765 -2766 0
-2765 -2767 0
-2765 -2768 0
-2766 -2767 0
-2766 -2768 0
-2767 -2768 0
-2708 2755 0
-2708 2757 0
-2705 -2706 0
-2705 -2707 0
-2705 -2708 0
-2706 -2707 0
-2706 -2708 0
-2707 -2708 0
-2685 -2751 2735 0
-2688 -2751 2723 0
-2686 -2751 2720 0
-2689 -2751 2742 0
-2687 -2751 2734 0
-2688 -2697 -2752 2725 0
-2688 -2702 -2752 2732 0
-2688 -2698 -2752 2710 0
-2686 -2701 -2752 2711 0
-2688 -2704 -2752 2713 0
-2685 -2698 -2752 2714 0
-2687 -2698 -2752 2728 0
-2689 -2701 -2752 2743 0
-2687 -2704 -2752 2715 0
-2688 -2700 -2752 2717 0
-2687 -2701 -2752 2736 0
-2685 -2701 -2752 2729 0
-2689 -2702 -2752 2719 0
-2689 -2698 -2752 2744 0
-2685 -2702 -2752 2745 0
-2688 -2699 -2752 2738 0
-2686 -2698 -2752 2739 0
-2689 -2697 -2752 2722 0
-2689 -2699 -2752 2740 0
-2686 -2704 -2752 2731 0
-2689 -2704 -2752 2724 0
-2688 -2701 -2752 2741 0
-2685 -2704 -2752 2748 0
-2686 -2699 -2752 2749 0
-2685 -2699 -2752 2750 0
-2697 2753 -2735 0
-2702 2753 -2720 0
-2698 2753 -2746 0
-2703 2753 -2723 0
-2701 2753 -2727 0
-2700 2753 -2742 0
-2699 2753 -2734 0
-2704 2753 -2716 0
-2762 -2754 2726 0
-2767 -2754 2718 0
-2768 -2754 2733 0
-2763 -2754 2712 0
-2766 -2754 2737 0
-2764 -2754 2721 0
-2765 -2754 2730 0
-2761 -2754 2747 0
-2765 -2755 2581 0
-2764 -2755 2556 0
-2766 -2755 2557 0
-2762 -2755 2576 0
-2761 -2755 2579 0
-2763 -2755 2572 0
-2767 -2755 2587 0
-2768 -2755 2562 0
-2691 -2756 2726 0
-2696 -2756 2733 0
-2692 -2756 2712 0
-2695 -2756 2737 0
-2693 -2756 2721 0
-2694 -2756 2730 0
-2690 -2756 2747 0
-2769 -2757 2747 0
-2772 -2757 2718 0
-2771 -2757 2712 0
-2770 -2757 2737 0
-2773 -2757 2721 0
-2688 -2690 2758 -2725 0
-2688 -2695 2758 -2732 0
-2688 -2691 2758 -2710 0
-2686 -2694 2758 -2711 0
-2688 -2696 2758 -2713 0
-2685 -2691 2758 -2714 0
-2687 -2691 2758 -2728 0
-2689 -2694 2758 -2743 0
-2687 -2696 2758 -2715 0
-2688 -2693 2758 -2717 0
-2687 -2694 2758 -2736 0
-2685 -2694 2758 -2729 0
-2689 -2695 2758 -2719 0
-2689 -2691 2758 -2744 0
-2685 -2695 2758 -2745 0
-2688 -2692 2758 -2738 0
-2686 -2691 2758 -2739 0
-2689 -2690 2758 -2722 0
-2689 -2692 2758 -2740 0
-2686 -2696 2758 -2731 0
-2689 -2696 2758 -2724 0
-2688 -2694 2758 -2741 0
-2685 -2696 2758 -2748 0
-2686 -2692 2758 -2749 0
-2685 -2692 2758 -2750 0
-2685 2759 -2747 0
-2688 2759 -2718 0
-2687 2759 -2712 0
-2686 2759 -2737 0
-2689 2759 -2721 0
-2769 -2760 2579 0
-2773 -2760 2556 0
-2770 -2760 2557 0
-2771 -2760 2572 0
-2772 -2760 2587 0
-2774 2685 -2690 0
-2774 -2685 2690 0
-2774 2686 -2695 0
-2774 -2686 2695 0
-2774 2687 -2692 0
-2774 -2687 2692 0
-2774 2689 -2693 0
-2774 -2689 2693 0
-2685 -2690 2774 0
-2686 -2695 2774 0
-2687 -2692 2774 0
-2689 -2693 2774 0
-2688 -2774 0
-2694 -2774 0
-2691 -2774 0
-2696 -2774 0
-2679 -2759 2774 0
-2679 2752 0
-2775 2697 -2690 0
-2775 -2697 2690 0
-2775 2698 -2691 0
-2775 -2698 2691 0
-2775 2699 -2692 0
-2775 -2699 2692 0
-2775 2700 -2693 0
-2775 -2700 2693 0
-2775 2701 -2694 0
-2775 -2701 2694 0
-2775 2702 -2695 0
-2775 -2702 2695 0
-2775 2704 -2696 0
-2775 -2704 2696 0
-2697 -2690 2775 0
-2698 -2691 2775 0
-2699 -2692 2775 0
-2700 -2693 2775 0
-2701 -2694 2775 0
-2702 -2695 2775 0
-2704 -2696 2775 0
-2703 -2775 0
-2776 2697 -2685 0
-2776 -2697 2685 0
-2776 2702 -2686 0
-2776 -2702 2686 0
-2776 2699 -2687 0
-2776 -2699 2687 0
-2776 2703 -2688 0
-2776 -2703 2688 0
-2776 2700 -2689 0
-2776 -2700 2689 0
-2697 -2685 2776 0
-2702 -2686 2776 0
-2699 -2687 2776 0
-2703 -2688 2776 0
-2700 -2689 2776 0
-2701 -2776 0
-2698 -2776 0
-2704 -2776 0
-2679 -2753 2776 0
-2777 2690 -2697 0
-2777 -2690 2697 0
-2777 2691 -2698 0
-2777 -2691 2698 0
-2777 2692 -2699 0
-2777 -2692 2699 0
-2777 2693 -2700 0
-2777 -2693 2700 0
-2777 2694 -2701 0
-2777 -2694 2701 0
-2777 2695 -2702 0
-2777 -2695 2702 0
-2777 2696 -2704 0
-2777 -2696 2704 0
-2690 -2697 2777 0
-2691 -2698 2777 0
-2692 -2699 2777 0
-2693 -2700 2777 0
-2694 -2701 2777 0
-2695 -2702 2777 0
-2696 -2704 2777 0
-2703 -2777 0
-2679 -2758 2777 0
-2679 2756 0
-2679 2751 0
-2706 -2770 -2766 0
-2706 -2770 -2764 0
-2706 -2770 -2761 0
-2706 -2770 -2767 0
-2706 -2769 -2764 0
-2706 -2769 -2761 0
-2706 -2769 -2767 0
-2706 -2773 -2764 0
-2706 -2773 -2767 0
-2706 -2771 -2766 0
-2706 -2771 -2764 0
-2706 -2771 -2763 0
-2706 -2771 -2761 0
-2706 -2771 -2767 0
-2706 -2772 -2767 0
-2708 -2770 -2766 0
-2708 -2770 -2764 0
-2708 -2770 -2761 0
-2708 -2770 -2767 0
-2708 -2769 -2764 0
-2708 -2769 -2761 0
-2708 -2769 -2767 0
-2708 -2773 -2764 0
-2708 -2773 -2767 0
-2708 -2771 -2766 0
-2708 -2771 -2764 0
-2708 -2771 -2763 0
-2708 -2771 -2761 0
-2708 -2771 -2767 0
-2708 -2772 -2767 0
-2554 2706 2707 2708 0
-2553 2705 0
-2706 2554 0
-2707 2554 0
-2708 2554 0
-2705 2553 0
-2556 151 -2709 0
2556 -151 -2709 0
-2557 152 -2709 0
2557 -152 -2709 0
-2710 154 -2709 0
2710 -154 -2709 0
-2711 155 -2709 0
2711 -155 -2709 0
-2712 385 -2709 0
2712 -385 -2709 0
-2713 156 -2709 0
2713 -156 -2709 0
-2714 158 -2709 0
2714 -158 -2709 0
-2562 159 -2709 0
2562 -159 -2709 0
-2715 160 -2709 0
2715 -160 -2709 0
-2716 602 -2709 0
2716 -602 -2709 0
-2717 10 -2709 0
2717 -10 -2709 0
-2718 162 -2709 0
2718 -162 -2709 0
-2719 163 -2709 0
2719 -163 -2709 0
-2720 270 -2709 0
2720 -270 -2709 0
-2721 386 -2709 0
2721 -386 -2709 0
-2722 11 -2709 0
2722 -11 -2709 0
-2723 271 -2709 0
2723 -271 -2709 0
-2724 167 -2709 0
2724 -167 -2709 0
-2725 170 -2709 0
2725 -170 -2709 0
-2726 171 -2709 0
2726 -171 -2709 0
-2572 172 -2709 0
2572 -172 -2709 0
-2727 273 -2709 0
2727 -273 -2709 0
-2728 12 -2709 0
2728 -12 -2709 0
-2729 174 -2709 0
2729 -174 -2709 0
-2576 274 -2709 0
2576 -274 -2709 0
-2730 387 -2709 0
2730 -387 -2709 0
-2731 176 -2709 0
2731 -176 -2709 0
-2732 153 -2709 0
2732 -153 -2709 0
-2733 388 -2709 0
2733 -388 -2709 0
-2579 157 -2709 0
2579 -157 -2709 0
-2734 267 -2709 0
2734 -267 -2709 0
-2581 268 -2709 0
2581 -268 -2709 0
-2735 269 -2709 0
2735 -269 -2709 0
-2736 161 -2709 0
2736 -161 -2709 0
-2737 389 -2709 0
2737 -389 -2709 0
-2738 164 -2709 0
2738 -164 -2709 0
-2739 165 -2709 0
2739 -165 -2709 0
-2740 166 -2709 0
2740 -166 -2709 0
-2587 168 -2709 0
2587 -168 -2709 0
-2741 169 -2709 0
2741 -169 -2709 0
-2742 272 -2709 0
2742 -272 -2709 0
-2743 173 -2709 0
2743 -173 -2709 0
-2744 175 -2709 0
2744 -175 -2709 0
-2745 13 -2709 0
2745 -13 -2709 0
-2746 603 -2709 0
2746 -603 -2709 0
-2747 390 -2709 0
2747 -390 -2709 0
-2748 177 -2709 0
2748 -177 -2709 0
-2749 14 -2709 0
2749 -14 -2709 0
-2750 178 -2709 0
2750 -178 -2709 0
-2609 2778 0
-2778 2609 0
a 2709 0
